\ Model Q3
\ LP format - for model browsing. Use MPS format to capture full model detail.
Minimize
  C0 + C1 + C2 + C3 + C4 + C5
Subject To
 R0: C0 + C5 >= 4
 R1: C0 + C1 >= 6
 R2: C1 + C2 >= 90
 R3: C2 + C3 >= 85
 R4: C3 + C4 >= 55
 R5: C4 + C5 >= 20
Bounds
End
